x
-1 1
1 3908 558654
2 0 4807
3 0 201538
4 83 45862
5 0 728
6 182 44073
7 0 5858
8 0 1744
9 0 2128
10 0 96
11 0 12445
12 0 640598
13 0 55228
14 0 110
15 0 17853
16 0 115418
17 0 117
18 77 19433
19 0 4
20 0 80
21 0 132250
